(set-info :smt-lib-version 2.6)
(set-logic QF_SNIA)
(set-info :source  | 
Generated by: Johannes Bauer
Generated on: 2026-06-21
Generator: mgm A12 Test Data Generator
Application: ELSTER
Target solver: Z3, CVC5
Script is based on the ELSTER form: capital gains tax registration (A / KapEStInvStG)
Characteristic of the form: easy.
In this script, all terms of the form (* x1 x2 x3 ...) are in the form (* x1 c2 c3 ...),
all terms of the form (div x y) are in the form (div x c) and the symbol mod is exclusively used in the form (mod x c),
where x, y, and x1, x2, x3 ... are free constants and c, c2, c3 ... are terms in the form n or (-n) for some numeral n.
The script starts with the base constraints, which define a valid data set for the corresponding form. After the first (push 1), control constraints follow.
The goal of the control constraints in this script is to fill up a data set with values, after the characteristics of the high test coverage were placed.
number variables: 188, number constraints: 197
"https://www.elster.de/eportal/start?locale=en_US"
"https://www.mgm-tp.com/q12-tdg.html"
"https://a12.ai/public-sector"
|)
(set-info :license "https://creativecommons.org/licenses/by/4.0/")
(set-info :category "industrial")
(declare-fun S1-S () String)
(declare-fun S2-S () String)
(declare-fun B3-F () Bool)
(declare-fun S3-S () String)
(declare-fun B4-F () Bool)
(declare-fun B5-F () Bool)
(declare-fun I5-y () Int)
(declare-fun B6-F () Bool)
(declare-fun S6-S () String)
(declare-fun B7-F () Bool)
(declare-fun B8-F () Bool)
(declare-fun B9-F () Bool)
(declare-fun S9-S () String)
(declare-fun B10-F () Bool)
(declare-fun I10-y () Int)
(declare-fun I10-m () Int)
(declare-fun I10-d () Int)
(declare-fun B11-F () Bool)
(declare-fun I11-y () Int)
(declare-fun I11-m () Int)
(declare-fun I11-d () Int)
(declare-fun B12-F () Bool)
(declare-fun B13-F () Bool)
(declare-fun B14-F () Bool)
(declare-fun B15-F () Bool)
(declare-fun I15 () Int)
(declare-fun B16-F () Bool)
(declare-fun B17-F () Bool)
(declare-fun B18-F () Bool)
(declare-fun B19-F () Bool)
(declare-fun B20-F () Bool)
(declare-fun B21-F () Bool)
(declare-fun B22-F () Bool)
(declare-fun B23-F () Bool)
(declare-fun B24-F () Bool)
(declare-fun B25-F () Bool)
(declare-fun I25 () Int)
(declare-fun B26-F () Bool)
(declare-fun I26 () Int)
(declare-fun I27-s-y () Int)
(declare-fun I27-s-m () Int)
(declare-fun I27-s-d () Int)
(declare-fun I27-e-y () Int)
(declare-fun I27-e-m () Int)
(declare-fun I27-e-d () Int)
(declare-fun I28-y () Int)
(declare-fun I28-m () Int)
(declare-fun I28-d () Int)
(declare-fun I29-y () Int)
(declare-fun I29-m () Int)
(declare-fun I29-d () Int)
(declare-fun B30-F () Bool)
(declare-fun B31-F () Bool)
(declare-fun B32-F () Bool)
(declare-fun B33-F () Bool)
(declare-fun I33 () Int)
(declare-fun B34-F () Bool)
(declare-fun I34 () Int)
(declare-fun I35 () Int)
(declare-fun B36-F () Bool)
(declare-fun B37-F () Bool)
(declare-fun B38-F () Bool)
(declare-fun B39-F () Bool)
(declare-fun B40-F () Bool)
(declare-fun I40 () Int)
(declare-fun I41-s-y () Int)
(declare-fun I41-s-m () Int)
(declare-fun I41-s-d () Int)
(declare-fun I41-e-y () Int)
(declare-fun I41-e-m () Int)
(declare-fun I41-e-d () Int)
(declare-fun I42-y () Int)
(declare-fun I42-m () Int)
(declare-fun I42-d () Int)
(declare-fun I43-y () Int)
(declare-fun I43-m () Int)
(declare-fun I43-d () Int)
(declare-fun I44 () Int)
(declare-fun I45 () Int)
(declare-fun I46 () Int)
(declare-fun I47 () Int)
(declare-fun I48 () Int)
(declare-fun S49-S () String)
(declare-fun I50-y () Int)
(declare-fun I50-m () Int)
(declare-fun I50-d () Int)
(declare-fun B51-F () Bool)
(declare-fun I51-y () Int)
(declare-fun I51-m () Int)
(declare-fun I51-d () Int)
(declare-fun B52-F () Bool)
(declare-fun I52-y () Int)
(declare-fun I52-m () Int)
(declare-fun I52-d () Int)
(declare-fun B53-F () Bool)
(declare-fun B54-F () Bool)
(declare-fun B55-F () Bool)
(declare-fun I55 () Int)
(declare-fun B56-F () Bool)
(declare-fun B57-F () Bool)
(declare-fun B58-F () Bool)
(declare-fun B59-F () Bool)
(declare-fun B60-F () Bool)
(declare-fun I60 () Int)
(declare-fun B61-F () Bool)
(declare-fun I61 () Int)
(declare-fun B62-F () Bool)
(declare-fun I62 () Int)
(declare-fun I63-y () Int)
(declare-fun I63-m () Int)
(declare-fun I63-d () Int)
(declare-fun B64-F () Bool)
(declare-fun B65-F () Bool)
(declare-fun B66-F () Bool)
(declare-fun I66 () Int)
(declare-fun B67-F () Bool)
(declare-fun I67 () Int)
(declare-fun B68-F () Bool)
(declare-fun I68 () Int)
(declare-fun B69-F () Bool)
(declare-fun B70-F () Bool)
(declare-fun B71-F () Bool)
(declare-fun I71 () Int)
(declare-fun B72-F () Bool)
(declare-fun I72 () Int)
(declare-fun B73-F () Bool)
(declare-fun I73 () Int)
(declare-fun I74 () Int)
(declare-fun I75 () Int)
(declare-fun I76 () Int)
(declare-fun B77-F () Bool)
(declare-fun B78-F () Bool)
(declare-fun I78 () Int)
(declare-fun B79-F () Bool)
(declare-fun I79 () Int)
(declare-fun B80-F () Bool)
(declare-fun I80 () Int)
(declare-fun I81 () Int)
(declare-fun I82 () Int)
(declare-fun B83-F () Bool)
(declare-fun I83-y () Int)
(declare-fun I83-m () Int)
(declare-fun I83-d () Int)
(declare-fun B84-F () Bool)
(declare-fun B85-F () Bool)
(declare-fun I85 () Int)
(declare-fun B86-F () Bool)
(declare-fun I86 () Int)
(declare-fun B87-F () Bool)
(declare-fun B88-F () Bool)
(declare-fun B89-F () Bool)
(declare-fun I89 () Int)
(declare-fun B90-F () Bool)
(declare-fun I90 () Int)
(declare-fun B91-F () Bool)
(declare-fun I91 () Int)
(declare-fun B92-F () Bool)
(declare-fun I92 () Int)
(declare-fun B93-F () Bool)
(declare-fun I93 () Int)
(declare-fun B94-F () Bool)
(declare-fun B95-F () Bool)
(declare-fun B96-F () Bool)
(declare-fun I96 () Int)
(declare-fun B97-F () Bool)
(declare-fun I97 () Int)
(declare-fun B98-F () Bool)
(declare-fun I98 () Int)
(declare-fun B99-F () Bool)
(declare-fun I99 () Int)
(declare-fun B100-F () Bool)
(declare-fun B101-F () Bool)
(declare-fun B102-F () Bool)
(declare-fun I102 () Int)
(declare-fun B103-F () Bool)
(declare-fun I103 () Int)
(declare-fun B104-F () Bool)
(declare-fun I104 () Int)
(declare-fun B105-F () Bool)
(declare-fun I105 () Int)
(declare-fun B106-F () Bool)
(declare-fun I107 () Int)
(declare-fun B108-F () Bool)
(declare-fun B109-F () Bool)
(declare-fun B110-F () Bool)
(declare-fun B111-F () Bool)
(declare-fun B112-F () Bool)
(declare-fun B113-F () Bool)
(assert (not (or B83-F B84-F)))
(assert (= B84-F (or B85-F B86-F)))
(assert (= B108-F (or B109-F B110-F)))
(assert (= B8-F (or B9-F B10-F B11-F B12-F B17-F B22-F)))
(assert (= B12-F (or B13-F B14-F B15-F B16-F)))
(assert (= B17-F (or B18-F B19-F B20-F B21-F)))
(assert (= B22-F (or B23-F B24-F B25-F B26-F)))
(assert (= B53-F (or B54-F B55-F B56-F B57-F)))
(assert (= B58-F (or B59-F B60-F B61-F B62-F)))
(assert (= B64-F (or B65-F B66-F B67-F B68-F)))
(assert (= B69-F (or B70-F B71-F B72-F B73-F)))
(assert (= B77-F (or B78-F B79-F B80-F)))
(assert (= B30-F (or B31-F B32-F B33-F B34-F)))
(assert (= B36-F (or B37-F B38-F B39-F B40-F)))
(assert (= B87-F (or B88-F B106-F)))
(assert (= B88-F (or B89-F B90-F B91-F B92-F B93-F B94-F B95-F B96-F B97-F B98-F B99-F B100-F B101-F B102-F B103-F B104-F B105-F)))
(assert (ite B85-F (and (<= I85 999999999999) (>= I85 0)) (= I85 0)))
(assert (ite B86-F (and (<= I86 999999999999) (>= I86 0)) (= I86 0)))
(assert (and (<= I81 999999999999) (>= I81 (- 999999999999))))
(assert (and (<= I82 99999999999999) (>= I82 (- 99999999999999))))
(assert (ite B14-F true false))
(assert (ite B15-F (and (<= I15 999999999999) (>= I15 (- 999999999999))) (= I15 0)))
(assert (ite B16-F true false))
(assert (ite B19-F true false))
(assert (ite B20-F true false))
(assert (ite B21-F true false))
(assert (ite B24-F true false))
(assert (ite B25-F (and (<= I25 999999999999) (>= I25 (- 999999999999))) (= I25 0)))
(assert (ite B26-F (and (<= I26 99999999999999) (>= I26 (- 99999999999999))) (= I26 0)))
(assert (ite B55-F (and (<= I55 999999999999) (>= I55 (- 999999999999))) (= I55 0)))
(assert (ite B56-F true false))
(assert (ite B57-F true false))
(assert (ite B60-F (and (<= I60 999999999999) (>= I60 (- 999999999999))) (= I60 0)))
(assert (ite B61-F (and (<= I61 999999999999) (>= I61 (- 999999999999))) (= I61 0)))
(assert (ite B62-F (and (<= I62 99999999999999) (>= I62 (- 99999999999999))) (= I62 0)))
(assert (ite B66-F (and (<= I66 999999999999) (>= I66 0)) (= I66 0)))
(assert (ite B67-F (and (<= I67 999999999999) (>= I67 0)) (= I67 0)))
(assert (ite B68-F (and (<= I68 99999999999999) (>= I68 0)) (= I68 0)))
(assert (ite B71-F (and (<= I71 999999999999) (>= I71 0)) (= I71 0)))
(assert (ite B72-F (and (<= I72 999999999999) (>= I72 0)) (= I72 0)))
(assert (ite B73-F (and (<= I73 99999999999999) (>= I73 0)) (= I73 0)))
(assert (and (<= I74 999999999999) (>= I74 0)))
(assert (and (<= I75 999999999999) (>= I75 0)))
(assert (and (<= I76 99999999999999) (>= I76 0)))
(assert (ite B78-F (and (<= I78 999999999999) (>= I78 (- 999999999999))) (= I78 0)))
(assert (ite B79-F (and (<= I79 999999999999) (>= I79 (- 999999999999))) (= I79 0)))
(assert (ite B80-F (and (<= I80 99999999999999) (>= I80 (- 99999999999999))) (= I80 0)))
(assert (ite B32-F true false))
(assert (ite B33-F (and (<= I33 999999999999) (>= I33 (- 999999999999))) (= I33 0)))
(assert (ite B34-F (and (<= I34 99999999999999) (>= I34 (- 99999999999999))) (= I34 0)))
(assert (and (<= I35 999999999999) (>= I35 (- 999999999999))))
(assert (ite B38-F true false))
(assert (ite B39-F true false))
(assert (ite B40-F (and (<= I40 99999999999999) (>= I40 (- 99999999999999))) (= I40 0)))
(assert (and (<= I44 999999999999) (>= I44 (- 999999999999))))
(assert (and (<= I45 999999999999) (>= I45 (- 999999999999))))
(assert (and (<= I46 99999999999999) (>= I46 (- 99999999999999))))
(assert (and (<= I47 999999999999) (>= I47 (- 999999999999))))
(assert (and (<= I48 99999999999999) (>= I48 (- 99999999999999))))
(assert (ite B92-F (and (<= I92 99999999999999) (>= I92 (- 9999999999999))) (= I92 0)))
(assert (ite B91-F (and (<= I91 99999999999999) (>= I91 (- 9999999999999))) (= I91 0)))
(assert (ite B89-F (and (<= I89 99999999999999) (>= I89 (- 9999999999999))) (= I89 0)))
(assert (ite B90-F (and (<= I90 99999999999999) (>= I90 (- 9999999999999))) (= I90 0)))
(assert (ite B93-F (and (<= I93 99999999999999) (>= I93 (- 9999999999999))) (= I93 0)))
(assert (ite B95-F true false))
(assert (ite B94-F true false))
(assert (ite B96-F (and (<= I96 99999999999999) (>= I96 (- 9999999999999))) (= I96 0)))
(assert (ite B97-F (and (<= I97 99999999999999) (>= I97 (- 9999999999999))) (= I97 0)))
(assert (ite B98-F (and (<= I98 99999999999999) (>= I98 (- 9999999999999))) (= I98 0)))
(assert (ite B99-F (and (<= I99 99999999999999) (>= I99 (- 9999999999999))) (= I99 0)))
(assert (ite B103-F (and (<= I103 99999999999999) (>= I103 (- 9999999999999))) (= I103 0)))
(assert (ite B100-F true false))
(assert (ite B101-F true false))
(assert (ite B102-F (and (<= I102 99999999999999) (>= I102 (- 9999999999999))) (= I102 0)))
(assert (ite B104-F (and (<= I104 99999999999999) (>= I104 (- 9999999999999))) (= I104 0)))
(assert (ite B105-F (and (<= I105 99999999999999) (>= I105 (- 9999999999999))) (= I105 0)))
(assert (ite B106-F (and (<= I107 99999999999999) (>= I107 (- 9999999999999))) (= I107 0)))
(assert (and (ite B83-F (and (> I83-y 1900) (< I83-y 2100)) (= I83-y 0)) (ite B83-F (and (> I83-m 0) (<= I83-m 12)) (= I83-m 0)) (ite B83-F (and (> I83-d 0) (<= I83-d (ite (or (= I83-m 0) (= I83-m 1) (= I83-m 3) (= I83-m 5) (= I83-m 7) (= I83-m 8) (= I83-m 10) (= I83-m 12)) 31 (ite (or (= I83-m 4) (= I83-m 6) (= I83-m 9) (= I83-m 11)) 30 (ite (= (mod I83-y 4) 0) 29 28))))) (= I83-d 0))))
(assert (ite B5-F (and (> I5-y 1900) (< I5-y 2100)) (= I5-y 0)))
(assert (and (ite B11-F (and (> I11-y 1900) (< I11-y 2100)) (= I11-y 0)) (ite B11-F (and (> I11-m 0) (<= I11-m 12)) (= I11-m 0)) (ite B11-F (and (> I11-d 0) (<= I11-d (ite (or (= I11-m 0) (= I11-m 1) (= I11-m 3) (= I11-m 5) (= I11-m 7) (= I11-m 8) (= I11-m 10) (= I11-m 12)) 31 (ite (or (= I11-m 4) (= I11-m 6) (= I11-m 9) (= I11-m 11)) 30 (ite (= (mod I11-y 4) 0) 29 28))))) (= I11-d 0))))
(assert (and (ite B10-F (and (> I10-y 1900) (< I10-y 2100)) (= I10-y 0)) (ite B10-F (and (> I10-m 0) (<= I10-m 12)) (= I10-m 0)) (ite B10-F (and (> I10-d 0) (<= I10-d (ite (or (= I10-m 0) (= I10-m 1) (= I10-m 3) (= I10-m 5) (= I10-m 7) (= I10-m 8) (= I10-m 10) (= I10-m 12)) 31 (ite (or (= I10-m 4) (= I10-m 6) (= I10-m 9) (= I10-m 11)) 30 (ite (= (mod I10-y 4) 0) 29 28))))) (= I10-d 0))))
(assert (and (ite B51-F (and (> I51-y 1900) (< I51-y 2100)) (= I51-y 0)) (ite B51-F (and (> I51-m 0) (<= I51-m 12)) (= I51-m 0)) (ite B51-F (and (> I51-d 0) (<= I51-d (ite (or (= I51-m 0) (= I51-m 1) (= I51-m 3) (= I51-m 5) (= I51-m 7) (= I51-m 8) (= I51-m 10) (= I51-m 12)) 31 (ite (or (= I51-m 4) (= I51-m 6) (= I51-m 9) (= I51-m 11)) 30 (ite (= (mod I51-y 4) 0) 29 28))))) (= I51-d 0))))
(assert (and (> I50-y 1900) (< I50-y 2100) (> I50-m 0) (<= I50-m 12) (> I50-d 0) (<= I50-d (ite (or (= I50-m 0) (= I50-m 1) (= I50-m 3) (= I50-m 5) (= I50-m 7) (= I50-m 8) (= I50-m 10) (= I50-m 12)) 31 (ite (or (= I50-m 4) (= I50-m 6) (= I50-m 9) (= I50-m 11)) 30 (ite (= (mod I50-y 4) 0) 29 28))))))
(assert (and (ite B52-F (and (> I52-y 1900) (< I52-y 2100)) (= I52-y 0)) (ite B52-F (and (> I52-m 0) (<= I52-m 12)) (= I52-m 0)) (ite B52-F (and (> I52-d 0) (<= I52-d (ite (or (= I52-m 0) (= I52-m 1) (= I52-m 3) (= I52-m 5) (= I52-m 7) (= I52-m 8) (= I52-m 10) (= I52-m 12)) 31 (ite (or (= I52-m 4) (= I52-m 6) (= I52-m 9) (= I52-m 11)) 30 (ite (= (mod I52-y 4) 0) 29 28))))) (= I52-d 0))))
(assert (and (> I63-y 1900) (< I63-y 2100) (> I63-m 0) (<= I63-m 12) (> I63-d 0) (<= I63-d (ite (or (= I63-m 0) (= I63-m 1) (= I63-m 3) (= I63-m 5) (= I63-m 7) (= I63-m 8) (= I63-m 10) (= I63-m 12)) 31 (ite (or (= I63-m 4) (= I63-m 6) (= I63-m 9) (= I63-m 11)) 30 (ite (= (mod I63-y 4) 0) 29 28))))))
(assert (and (> I29-y 1900) (< I29-y 2100) (> I29-m 0) (<= I29-m 12) (> I29-d 0) (<= I29-d (ite (or (= I29-m 0) (= I29-m 1) (= I29-m 3) (= I29-m 5) (= I29-m 7) (= I29-m 8) (= I29-m 10) (= I29-m 12)) 31 (ite (or (= I29-m 4) (= I29-m 6) (= I29-m 9) (= I29-m 11)) 30 (ite (= (mod I29-y 4) 0) 29 28))))))
(assert (and (> I28-y 1900) (< I28-y 2100) (> I28-m 0) (<= I28-m 12) (> I28-d 0) (<= I28-d (ite (or (= I28-m 0) (= I28-m 1) (= I28-m 3) (= I28-m 5) (= I28-m 7) (= I28-m 8) (= I28-m 10) (= I28-m 12)) 31 (ite (or (= I28-m 4) (= I28-m 6) (= I28-m 9) (= I28-m 11)) 30 (ite (= (mod I28-y 4) 0) 29 28))))))
(assert (or (< I27-s-y I27-e-y) (and (= I27-s-y I27-e-y) (< I27-s-m I27-e-m)) (and (= I27-s-y I27-e-y) (= I27-s-m I27-e-m) (<= I27-s-d I27-e-d))))
(assert (and (>= I27-e-d 1) (<= I27-e-d (ite (or (= I27-e-m 0) (= I27-e-m 1) (= I27-e-m 3) (= I27-e-m 5) (= I27-e-m 7) (= I27-e-m 8) (= I27-e-m 10) (= I27-e-m 12)) 31 (ite (or (= I27-e-m 4) (= I27-e-m 6) (= I27-e-m 9) (= I27-e-m 11)) 30 (ite (= (mod I27-e-y 4) 0) 29 28))))))
(assert (and (>= I27-e-m 1) (<= I27-e-m 12)))
(assert (and (>= I27-e-y 1901) (<= I27-e-y 2099)))
(assert (and (>= I27-s-d 1) (<= I27-s-d (ite (or (= I27-s-m 0) (= I27-s-m 1) (= I27-s-m 3) (= I27-s-m 5) (= I27-s-m 7) (= I27-s-m 8) (= I27-s-m 10) (= I27-s-m 12)) 31 (ite (or (= I27-s-m 4) (= I27-s-m 6) (= I27-s-m 9) (= I27-s-m 11)) 30 (ite (= (mod I27-s-y 4) 0) 29 28))))))
(assert (and (>= I27-s-m 1) (<= I27-s-m 12)))
(assert (and (>= I27-s-y 1901) (<= I27-s-y 2099)))
(assert (and (> I43-y 1900) (< I43-y 2100) (> I43-m 0) (<= I43-m 12) (> I43-d 0) (<= I43-d (ite (or (= I43-m 0) (= I43-m 1) (= I43-m 3) (= I43-m 5) (= I43-m 7) (= I43-m 8) (= I43-m 10) (= I43-m 12)) 31 (ite (or (= I43-m 4) (= I43-m 6) (= I43-m 9) (= I43-m 11)) 30 (ite (= (mod I43-y 4) 0) 29 28))))))
(assert (and (> I42-y 1900) (< I42-y 2100) (> I42-m 0) (<= I42-m 12) (> I42-d 0) (<= I42-d (ite (or (= I42-m 0) (= I42-m 1) (= I42-m 3) (= I42-m 5) (= I42-m 7) (= I42-m 8) (= I42-m 10) (= I42-m 12)) 31 (ite (or (= I42-m 4) (= I42-m 6) (= I42-m 9) (= I42-m 11)) 30 (ite (= (mod I42-y 4) 0) 29 28))))))
(assert (or (< I41-s-y I41-e-y) (and (= I41-s-y I41-e-y) (< I41-s-m I41-e-m)) (and (= I41-s-y I41-e-y) (= I41-s-m I41-e-m) (<= I41-s-d I41-e-d))))
(assert (and (>= I41-e-d 1) (<= I41-e-d (ite (or (= I41-e-m 0) (= I41-e-m 1) (= I41-e-m 3) (= I41-e-m 5) (= I41-e-m 7) (= I41-e-m 8) (= I41-e-m 10) (= I41-e-m 12)) 31 (ite (or (= I41-e-m 4) (= I41-e-m 6) (= I41-e-m 9) (= I41-e-m 11)) 30 (ite (= (mod I41-e-y 4) 0) 29 28))))))
(assert (and (>= I41-e-m 1) (<= I41-e-m 12)))
(assert (and (>= I41-e-y 1901) (<= I41-e-y 2099)))
(assert (and (>= I41-s-d 1) (<= I41-s-d (ite (or (= I41-s-m 0) (= I41-s-m 1) (= I41-s-m 3) (= I41-s-m 5) (= I41-s-m 7) (= I41-s-m 8) (= I41-s-m 10) (= I41-s-m 12)) 31 (ite (or (= I41-s-m 4) (= I41-s-m 6) (= I41-s-m 9) (= I41-s-m 11)) 30 (ite (= (mod I41-s-y 4) 0) 29 28))))))
(assert (and (>= I41-s-m 1) (<= I41-s-m 12)))
(assert (and (>= I41-s-y 1901) (<= I41-s-y 2099)))
(assert (=> B9-F (and (> (str.to_int S9-S) 1900) (< (str.to_int S9-S) 2100))))
(assert (=> B9-F (and (> (str.to_int S9-S) 1900) (< (str.to_int S9-S) 2100))))
(assert (ite B9-F (and (str.in_re S9-S (re.+ (re.range "0" "9"))) (>= (str.len S9-S) 4) (<= (str.len S9-S) 4)) (= S9-S "")))
(assert (and (str.in_re S49-S (re.+ (re.range "0" "9"))) (>= (str.len S49-S) 4) (<= (str.len S49-S) 4)))
(assert (or (= S2-S "0") (= S2-S "1")))
(assert (ite B6-F (or (= S6-S "11") (= S6-S "01") (= S6-S "12") (= S6-S "02") (= S6-S "03") (= S6-S "04") (= S6-S "05") (= S6-S "06") (= S6-S "07") (= S6-S "08") (= S6-S "09") (= S6-S "10")) (= S6-S "")))
(assert (or (= S1-S "2216060427666") (= S1-S "2815094023008") (= S1-S "1060048649864") (= S1-S "2348008413417") (= S1-S "2702024686052") (= S1-S "3207051220872") (= S1-S "1123012960769") (= S1-S "5103096558745") (= S1-S "2632041436639") (= S1-S "3103071321727") (= S1-S "3062087900803") (= S1-S "9170050074951") (= S1-S "4084068125545") (= S1-S "2460083378687") (= S1-S "2189063488000")))
(assert (ite B3-F (or (= S3-S "2216060427666") (= S3-S "2815094023008") (= S3-S "1060048649864") (= S3-S "2348008413417") (= S3-S "2702024686052") (= S3-S "3207051220872") (= S3-S "1123012960769") (= S3-S "5103096558745") (= S3-S "2632041436639") (= S3-S "3103071321727") (= S3-S "3062087900803") (= S3-S "9170050074951") (= S3-S "4084068125545") (= S3-S "2460083378687") (= S3-S "2189063488000")) (= S3-S "")))
(assert B106-F)
(assert (not (and B86-F B85-F (distinct I85 0) (distinct I86 (div (* I85 15) 100)))))
(assert (not (and B83-F (or (< I83-y 2025) (> I83-y 2025)))))
(assert (not (and (or B110-F B109-F) (not (and B110-F B109-F)))))
(assert (not (and (not B89-F) (not B90-F) (not B91-F) (not B92-F) (not B93-F) (not B94-F) (not B95-F) (not B96-F) (not B97-F) (not B98-F) (not B99-F) (not B100-F) (not B101-F) (not B102-F) (not B103-F) (not B104-F) (not B105-F) (not B106-F))))
(assert (not (distinct I81 (+ I15 I25 I33 I45 I47 I61 I67 I72 I75 I79 (- 217)))))
(assert (not (distinct I82 (+ I26 I34 I40 I46 I48 I62 I68 I73 I76 I80 (- 856359551199)))))
(assert (not (and B5-F (or (< I5-y 2025) (> I5-y 2025)))))
(assert (not (and B11-F B10-F (or (> I11-y I10-y) (and (= I11-y I10-y) (> I11-m I10-m)) (and (= I11-y I10-y) (= I11-m I10-m) (> I11-d I10-d))))))
(assert (not (and B10-F (or (distinct I10-y (ite B5-F I5-y 0)) (distinct I10-m (str.to_int (ite B6-F S6-S "")))))))
(assert (not (and B9-F B11-F (>= (ite (and (>= (str.to_int S9-S) 1) (<= (str.to_int S9-S) 9999)) (+ (- I11-y (str.to_int S9-S)) (ite (or (< (str.to_int S9-S) I11-y) (and (= (str.to_int S9-S) I11-y) (< 5 I11-m)) (and (= (str.to_int S9-S) I11-y) (= 5 I11-m) (< 1 I11-d)) (and (= (str.to_int S9-S) I11-y) (= 5 I11-m) (= 1 I11-d))) (ite (or (< 5 I11-m) (and (= 5 I11-m) (<= 1 I11-d))) 0 (- 1)) (ite (or (> 5 I11-m) (and (= 5 I11-m) (>= 1 I11-d))) 0 1))) 0) 1))))
(assert (not (and B10-F (< I10-y (str.to_int (str.substr (ite B9-F S9-S "") 0 4))))))
(assert (not (and (not (and B11-F B10-F B9-F)) (or B12-F B17-F B22-F))))
(assert (not (and (or B9-F B10-F B11-F) (not B12-F) (not B17-F) (not B22-F))))
(assert (not (and B9-F (> (str.to_int (str.substr S9-S 0 4)) 2025))))
(assert (not (and (or B14-F B19-F B24-F) (or (= I15 0) (= I25 0)))))
(assert (not (and B15-F B16-F (> (ite (>= (- (- 856359551195) (div (* I15 55) 10)) 0) (- (- 856359551195) (div (* I15 55) 10)) (- (- (- 856359551195) (div (* I15 55) 10)))) 100))))
(assert (not (and (or B13-F B14-F B15-F B16-F) (not (and B13-F B14-F B15-F B16-F)))))
(assert (not (and (or B15-F B20-F B25-F) (or (> (* I15 100) (- 14999999999885)) (> (* I25 100) (- 1179949220))))))
(assert (not (and (or B18-F B19-F B20-F B21-F) (not (and B18-F B19-F B20-F B21-F)))))
(assert (not (and B25-F B26-F (> (ite (>= (- I26 (div (* I25 55) 10)) 0) (- I26 (div (* I25 55) 10)) (- (- I26 (div (* I25 55) 10)))) 100))))
(assert (not (and (or B23-F B24-F B25-F B26-F) (not (and B23-F B24-F B25-F B26-F)))))
(assert (not (and B51-F (not B52-F))))
(assert (not (and B51-F (or (< I51-y I50-y) (and (= I51-y I50-y) (< I51-m I50-m)) (and (= I51-y I50-y) (= I51-m I50-m) (< I51-d I50-d)) (and (= I51-y I50-y) (= I51-m I50-m) (= I51-d I50-d))))))
(assert (not (and B51-F (< I51-y (str.to_int (str.substr S49-S 0 4))))))
(assert (not (and B51-F B52-F (or (< I51-y I52-y) (and (= I51-y I52-y) (< I51-m I52-m)) (and (= I51-y I52-y) (= I51-m I52-m) (< I51-d I52-d))))))
(assert (not (and B51-F (or (< I51-y (ite B5-F I5-y 0)) (and (= I51-y (ite B5-F I5-y 0)) (< I51-m (str.to_int (ite B6-F S6-S ""))))))))
(assert (not (and B52-F (< I52-y 2023))))
(assert (not (distinct I50-y (str.to_int (str.substr S49-S 0 4)))))
(assert (not (or (> I50-y (ite B5-F I5-y 0)) (and (= I50-y (ite B5-F I5-y 0)) (> I50-m (str.to_int (ite B6-F S6-S "")))))))
(assert (not (> (str.to_int (str.substr S49-S 0 4)) 2025)))
(assert (not (or (and (or (< I50-y 2022) (and (= I50-y 2022) (< I50-m 10)) (and (= I50-y 2022) (= I50-m 10) (< I50-d 1))) (< (str.to_int (str.substr S49-S 0 4)) 2025)) (and (or (> I50-y 2022) (and (= I50-y 2022) (> I50-m 10)) (and (= I50-y 2022) (= I50-m 10) (> I50-d 1)) (and (= I50-y 2022) (= I50-m 10) (= I50-d 1))) (or (and (< (str.to_int (str.substr S49-S 0 4)) 2025) (= (str.to_int (str.substr S49-S 0 4)) 2024) (>= (str.to_int (ite B6-F S6-S "")) 5) (<= (str.to_int (ite B6-F S6-S "")) 12)) (and (< (str.to_int (str.substr S49-S 0 4)) 2025) (distinct (str.to_int (str.substr S49-S 0 4)) 2024)))))))
(assert (not (or (and (= I50-y (ite B5-F I5-y 0)) (< I50-m (- (str.to_int (ite B6-F S6-S "")) 4))) (and (distinct I50-y (ite B5-F I5-y 0)) (< I50-y (- (ite B5-F I5-y 0) 1))) (and (distinct I50-y (ite B5-F I5-y 0)) (= I50-y (- (ite B5-F I5-y 0) 1)) (> I50-m 8) (< I50-m (- (+ (str.to_int (ite B6-F S6-S "")) 12) 4))) (and (distinct I50-y (ite B5-F I5-y 0)) (= I50-y (- (ite B5-F I5-y 0) 1)) (<= I50-m 8)))))
(assert (not (and (distinct I60 0) (= I61 0))))
(assert (not (or (> 100 (+ (* I55 15) 100)) (> (* I61 100) (+ (* I60 15) 100)))))
(assert (not (and (or B54-F B55-F B56-F B57-F) (not (and B54-F B55-F B56-F B57-F)))))
(assert (not (and B61-F B62-F (> (ite (>= (- I62 (div (* I61 55) 10)) 0) (- I62 (div (* I61 55) 10)) (- (- I62 (div (* I61 55) 10)))) 100))))
(assert (not (and (or B59-F B60-F B61-F B62-F) (not (and B59-F B60-F B61-F B62-F)))))
(assert (not (or (and (distinct I66 0) (= I67 0)) (and (distinct I71 0) (= I72 0)) (and (distinct I74 0) (= I75 0)))))
(assert (not (and B67-F B68-F (> (ite (>= (- I68 (div (* I67 55) 10)) 0) (- I68 (div (* I67 55) 10)) (- (- I68 (div (* I67 55) 10)))) 100))))
(assert (not (and (or B65-F B66-F B67-F B68-F) (not (and B65-F B66-F B67-F B68-F)))))
(assert (not (or (> (* I67 100) (+ (* I66 15) 100)) (> (* I72 100) (+ (* I71 15) 100)) (> (* I75 100) (+ (* I74 15) 100)))))
(assert (not (and B72-F B73-F (> (ite (>= (- I73 (div (* I72 55) 10)) 0) (- I73 (div (* I72 55) 10)) (- (- I73 (div (* I72 55) 10)))) 100))))
(assert (not (and (or B70-F B71-F B72-F B73-F) (not (and B70-F B71-F B72-F B73-F)))))
(assert (not (> (ite (>= (- I76 (div (* I75 55) 10)) 0) (- I76 (div (* I75 55) 10)) (- (- I76 (div (* I75 55) 10)))) 100)))
(assert (not (and B78-F (distinct I78 0) (= I79 0))))
(assert (not (and B79-F B80-F (> (ite (>= (- I80 (div (* I79 55) 10)) 0) (- I80 (div (* I79 55) 10)) (- (- I80 (div (* I79 55) 10)))) 100))))
(assert (not (and B79-F (> (* I79 100) (+ (* I78 15) 100)))))
(assert (not (or (> I63-y (ite B5-F I5-y 0)) (and (> I63-m (str.to_int (ite B6-F S6-S ""))) (= I63-y (ite B5-F I5-y 0))))))
(assert (not (or (> I29-y I28-y) (and (= I29-y I28-y) (> I29-m I28-m)) (and (= I29-y I28-y) (= I29-m I28-m) (> I29-d I28-d)))))
(assert (not (or (distinct I28-y (ite B5-F I5-y 0)) (distinct I28-m (str.to_int (ite B6-F S6-S ""))))))
(assert (not (< I28-y 2025)))
(assert (not (= I33 0)))
(assert (not (and B33-F B34-F (> (ite (>= (- I34 (div (* I33 55) 10)) 0) (- I34 (div (* I33 55) 10)) (- (- I34 (div (* I33 55) 10)))) 100))))
(assert (not (and (or B31-F B32-F B33-F B34-F) (not (and B31-F B32-F B33-F B34-F)))))
(assert (not (or (> (* I33 100) (- 14999999999885)) (> 100 (+ (* I35 15) 100)))))
(assert (not (and B39-F B40-F (> (ite (>= (- I40 (- 1199)) 0) (- I40 (- 1199)) (- (- I40 (- 1199)))) 100))))
(assert (not (and (or B37-F B38-F B39-F B40-F) (not (and B37-F B38-F B39-F B40-F)))))
(assert (not (or (> I27-e-y I28-y) (and (= I27-e-y I28-y) (> I27-e-m I28-m)) (and (= I27-e-y I28-y) (= I27-e-m I28-m) (> I27-e-d I28-d)))))
(assert (not (or (< I27-s-y (- I27-e-y 1)) (and (= I27-s-y (- I27-e-y 1)) (< I27-s-m I27-e-m)) (and (= I27-s-y (- I27-e-y 1)) (= I27-s-m I27-e-m) (< I27-s-d (+ I27-e-d 1))))))
(assert (not (or (> I43-y I42-y) (and (= I43-y I42-y) (> I43-m I42-m)) (and (= I43-y I42-y) (= I43-m I42-m) (> I43-d I42-d)))))
(assert (not (or (distinct I42-y (ite B5-F I5-y 0)) (distinct I42-m (str.to_int (ite B6-F S6-S ""))))))
(assert (not (< I42-y 2025)))
(assert (not (or (and (distinct I44 0) (= I45 0)) (= I47 0))))
(assert (not (> (ite (>= (- I46 (div (* I45 55) 10)) 0) (- I46 (div (* I45 55) 10)) (- (- I46 (div (* I45 55) 10)))) 100)))
(assert (not (or (> (* I45 100) (+ (* I44 15) 100)) (> (* I47 100) 15000000000085))))
(assert (not (> (ite (>= (- I48 (div (* I47 55) 10)) 0) (- I48 (div (* I47 55) 10)) (- (- I48 (div (* I47 55) 10)))) 100)))
(assert (not (or (> I41-e-y I42-y) (and (= I41-e-y I42-y) (> I41-e-m I42-m)) (and (= I41-e-y I42-y) (= I41-e-m I42-m) (> I41-e-d I42-d)))))
(assert (not (or (< I41-s-y (- I41-e-y 1)) (and (= I41-s-y (- I41-e-y 1)) (< I41-s-m I41-e-m)) (and (= I41-s-y (- I41-e-y 1)) (= I41-s-m I41-e-m) (< I41-s-d (+ I41-e-d 1))))))
(assert (not B83-F))
(assert (and B5-F B6-F))
(assert (not (and B5-F B6-F (or (< 2026 I5-y) (and (= 2026 I5-y) (<= 6 (str.to_int S6-S)))))))
(assert (not (and B5-F B6-F (or (< 2027 I5-y) (and (= 2027 I5-y) (<= 6 (str.to_int S6-S)))))))
(assert (not (and B3-F (= S2-S "0"))))
(assert (not (and B3-F (= S3-S S1-S))))
(assert (not (and (or B92-F B91-F B93-F B89-F B90-F B94-F B95-F B96-F B97-F B98-F B105-F B99-F B102-F B103-F B100-F B101-F B104-F) (not B106-F))))
(assert (not (and B106-F (or B92-F B91-F B93-F B89-F B90-F B94-F B95-F B96-F B97-F B98-F B105-F B99-F B102-F B103-F B100-F B101-F B104-F) (distinct I107 (+ I92 I91 I93 I89 I90 I96 I97 I98 I105 I99 I102 I103 I104 199999009999320)))))
(assert (not (and B106-F (not B92-F) (not B91-F) (not B93-F) (not B89-F) (not B90-F) (not B94-F) (not B95-F) (not B96-F) (not B97-F) (not B98-F) (not B105-F) (not B99-F) (not B102-F) (not B103-F) (not B100-F) (not B101-F) (not B104-F))))
(assert (not (and B106-F (distinct I107 (* I81 100)))))
(push 1)
(assert B40-F)
(set-info :status sat)
(check-sat)
(push 1)
(assert B15-F)
(set-info :status sat)
(check-sat)
(push 1)
(assert B71-F)
(set-info :status sat)
(check-sat)
(push 1)
(assert B73-F)
(set-info :status sat)
(check-sat)
(push 1)
(assert B6-F)
(set-info :status sat)
(check-sat)
(push 1)
(assert B52-F)
(set-info :status sat)
(check-sat)
(push 1)
(assert B67-F)
(set-info :status sat)
(check-sat)
(push 1)
(assert B7-F)
(set-info :status sat)
(check-sat)
(push 1)
(assert B39-F)
(set-info :status sat)
(check-sat)
(push 1)
(assert B24-F)
(set-info :status sat)
(check-sat)
(push 1)
(assert B16-F)
(set-info :status sat)
(check-sat)
(push 1)
(assert B21-F)
(set-info :status sat)
(check-sat)
(push 1)
(assert B9-F)
(set-info :status sat)
(check-sat)
(push 1)
(assert B94-F)
(set-info :status sat)
(check-sat)
(push 1)
(assert B95-F)
(set-info :status sat)
(check-sat)
(push 1)
(assert B51-F)
(set-info :status sat)
(check-sat)
(push 1)
(assert B4-F)
(set-info :status sat)
(check-sat)
(push 1)
(assert B3-F)
(set-info :status sat)
(check-sat)
(push 1)
(assert B57-F)
(set-info :status sat)
(check-sat)
(push 1)
(assert B56-F)
(set-info :status sat)
(check-sat)
(push 1)
(assert B20-F)
(set-info :status sat)
(check-sat)
(push 1)
(assert B100-F)
(set-info :status sat)
(check-sat)
(push 1)
(assert B101-F)
(set-info :status sat)
(check-sat)
(push 1)
(assert B113-F)
(set-info :status sat)
(check-sat)
(push 1)
(assert B25-F)
(set-info :status sat)
(check-sat)
(push 1)
(assert B18-F)
(set-info :status sat)
(check-sat)
(push 1)
(assert B112-F)
(set-info :status sat)
(check-sat)
(push 1)
(assert B31-F)
(set-info :status sat)
(check-sat)
(push 1)
(assert B89-F)
(set-info :status sat)
(check-sat)
(push 1)
(assert B37-F)
(set-info :status sat)
(check-sat)
(push 1)
(assert B5-F)
(set-info :status sat)
(check-sat)
(push 1)
(assert B10-F)
(set-info :status sat)
(check-sat)
(push 1)
(assert B54-F)
(set-info :status sat)
(check-sat)
(push 1)
(assert B111-F)
(set-info :status sat)
(check-sat)
(push 1)
(assert B83-F)
(set-info :status unsat)
(check-sat)
(pop 1)
(push 1)
(assert B11-F)
(set-info :status sat)
(check-sat)
(push 1)
(assert B110-F)
(set-info :status sat)
(check-sat)
(push 1)
(assert B104-F)
(set-info :status sat)
(check-sat)
(push 1)
(assert B68-F)
(set-info :status sat)
(check-sat)
(push 1)
(assert B72-F)
(set-info :status sat)
(check-sat)
(push 1)
(assert B90-F)
(set-info :status sat)
(check-sat)
(push 1)
(assert B65-F)
(set-info :status sat)
(check-sat)
(push 1)
(assert B23-F)
(set-info :status sat)
(check-sat)
(push 1)
(assert B13-F)
(set-info :status sat)
(check-sat)
(push 1)
(assert B59-F)
(set-info :status sat)
(check-sat)
(push 1)
(assert B70-F)
(set-info :status sat)
(check-sat)
(push 1)
(assert B32-F)
(set-info :status sat)
(check-sat)
(push 1)
(assert B62-F)
(set-info :status sat)
(check-sat)
(push 1)
(assert B103-F)
(set-info :status sat)
(check-sat)
(push 1)
(assert B79-F)
(set-info :status sat)
(check-sat)
(push 1)
(assert B85-F)
(set-info :status unsat)
(check-sat)
(pop 1)
(push 1)
(assert B34-F)
(set-info :status sat)
(check-sat)
(push 1)
(assert B102-F)
(set-info :status sat)
(check-sat)
(push 1)
(assert B33-F)
(set-info :status sat)
(check-sat)
(push 1)
(assert B98-F)
(set-info :status sat)
(check-sat)
(push 1)
(assert B55-F)
(set-info :status sat)
(check-sat)
(push 1)
(assert B105-F)
(set-info :status sat)
(check-sat)
(push 1)
(assert B93-F)
(set-info :status sat)
(check-sat)
(push 1)
(assert B106-F)
(set-info :status sat)
(check-sat)
(push 1)
(assert B97-F)
(set-info :status sat)
(check-sat)
(push 1)
(assert B92-F)
(set-info :status sat)
(check-sat)
(push 1)
(assert B91-F)
(set-info :status sat)
(check-sat)
(push 1)
(assert B19-F)
(set-info :status sat)
(check-sat)
(push 1)
(assert B60-F)
(set-info :status sat)
(check-sat)
(push 1)
(assert B96-F)
(set-info :status sat)
(check-sat)
(push 1)
(assert B109-F)
(set-info :status sat)
(check-sat)
(push 1)
(assert B80-F)
(set-info :status sat)
(check-sat)
(push 1)
(assert B78-F)
(set-info :status sat)
(check-sat)
(push 1)
(assert B38-F)
(set-info :status sat)
(check-sat)
(push 1)
(assert B66-F)
(set-info :status sat)
(check-sat)
(push 1)
(assert B86-F)
(set-info :status unsat)
(check-sat)
(pop 1)
(push 1)
(assert B61-F)
(set-info :status sat)
(check-sat)
(push 1)
(assert B14-F)
(set-info :status sat)
(check-sat)
(push 1)
(assert B99-F)
(set-info :status sat)
(check-sat)
(push 1)
(assert B26-F)
(set-info :status sat)
(check-sat)
(exit)

